&CONTROL
calculation = 'scf'
  prefix='adatomNb',
  outdir='./tmp',
  pseudo_dir='/ptmp/jojaibal/YSR_Project',
  verbosity='low',
tstress = .false.
 tprnfor = .false.
 /

&SYSTEM
  ibrav = 4, a=13.7841709588d0, c=23.63142987d0
  nat=49,
  ntyp=3,
  ecutwfc=75.0d0,
  ecutrho=800.0d0,
  occupations='smearing',
  smearing='mp',
  degauss=0.02,
  nspin=2,
  starting_magnetization(1)=0.5,
 lda_plus_u=.true.,
 Hubbard_U(1)=4,
 ! vdw_corr='grimme-d2'
/

&ELECTRONS
  diagonalization='david',
  conv_thr=1d-07,
  mixing_mode='local-TF',
  mixing_beta=0.7D0,
  electron_maxstep=1000,
/

ATOMIC_SPECIES
  Cr   51.9961  Cr.pbe-spn-kjpaw_psl.1.0.0.UPF
  Nb   92.90638  Nb.pbe-spn-kjpaw_psl.1.0.0.UPF
  Se   78.96000  Se.pbe-n-kjpaw_psl.1.0.0.UPF
  
ATOMIC_POSITIONS (crystal)
Cr 0.7500000000 0.7500000000 0.1989422506   
Nb 0.0002008434 0.0057817588 0.0719851226   
Se 0.1666295703 0.0837563357 0.0002133043   
Se 0.1683563845 0.0852358842 0.1425365497   
Nb 0.2493845934 -0.000307703 0.0711879026   
Se 0.4166666670 0.0833333330 -0.000197758   
Se 0.4166666670 0.0833333330 0.1426419431   
Nb 0.5003077033 -0.000307703 0.0711879026   
Se 0.6671267664 0.0837563357 0.0002133043   
Se 0.6668795007 0.0852358842 0.1425365497   
Nb 0.7555809154 0.0057817588 0.0719851226   
Se 0.9172383164 0.0844766319 -0.000888162   
Se 0.9181442767 0.0862885525 0.1446605368   
Nb 0.7552332977 0.2526166489 0.0710863225   
Se 0.9180018631 0.3340009311 -0.001032265   
Se 0.9178266454 0.3339133222 0.1436105003   
Nb 0.7555809154 0.4997991566 0.0719851226   
Se 0.9172383164 0.5827616836 -0.000888162   
Se 0.9181442767 0.5818557233 0.1446605368   
Nb 0.7500000000 0.7500000000 0.0730706965   
Se 0.9178586120 0.8339293055 0.0033033371   
Se 0.9247524821 0.8373762406 0.1440421116   
Nb 0.4942182412 0.7444190846 0.0719851226   
Se 0.6660706945 0.8339293055 0.0033033371   
Se 0.6626237594 0.8373762406 0.1440421116   
Nb 0.2473833511 0.7447667023 0.0710863225   
Se 0.4162436643 0.8328732336 0.0002133043   
Se 0.4147641158 0.8331204993 0.1425365497   
Nb 0.0002008434 0.7444190846 0.0719851226   
Se 0.1666295703 0.8328732336 0.0002133043   
Se 0.1683563845 0.8331204993 0.1425365497   
Nb 0.5003077033 0.2506154066 0.0711879026   
Se 0.6671267664 0.3333704297 0.0002133043   
Se 0.6668795007 0.3316436155 0.1425365497   
Nb 0.4942182412 0.4997991566 0.0719851226   
Se 0.6660706945 0.5821413880 0.0033033371   
Se 0.6626237594 0.5752475179 0.1440421116   
Nb 0.2488236761 0.4994118380 0.0713815244   
Se 0.4155233681 0.5827616836 -0.000888162   
Se 0.4137114475 0.5818557233 0.1446605368   
Nb 0.2473833511 0.2526166489 0.0710863225   
Se 0.4162436643 0.3333704297 0.0002133043   
Se 0.4147641158 0.3316436155 0.1425365497   
Nb 0.0005881620 0.2511763239 0.0713815244   
Se 0.1659990689 0.3340009311 -0.001032265   
Se 0.1660866778 0.3339133222 0.1436105003   
Nb 0.0005881620 0.4994118380 0.0713815244   
Se 0.1659990689 0.5819981369 -0.001032265   
Se 0.1660866778 0.5821733546 0.1436105003   

K_POINTS {automatic}
6 6 1 0 0 0

