num_bands         =  220
num_wann          =  128

spinors=true

write_hr_diag= true
write_xyz= true
write_hr=true
bands_plot = true
!restart=wannierise
!bands_plot_project=1,2,3,4,5,6,7,8,9,10
iprint=3
dis_win_max       = 10
dis_win_min       = -6 !-11.5 !-12.4 
dis_froz_min      = -6 !-0.5
dis_froz_max      = 1  
dis_num_iter      =  2000
guiding_centres = T
num_iter          = 500
num_print_cycles  = 100

Begin Atoms_Frac
Cr       0.333333333   0.666666667   0.294018818
Cr       0.666666667   0.333333333   0.293713073
Br       0.364181501   0.365740032   0.240917602
Br       0.634259968  -0.001558530   0.240917602
Br       0.001558530   0.635818499   0.240917602
Br       0.638886396   0.638086725   0.345919758
Br       0.361913275   0.000799670   0.345919758
Br      -0.000799670   0.361113604   0.345919758
Nb      -0.000000000  -0.000000000   0.057288206
Se       0.333693764   0.166340743  -0.005057204
Se       0.333491679   0.165256694   0.119154635
Nb       0.498332882   0.499541815   0.057422636
Se       0.832646978   0.666306236  -0.005057204
Se       0.831765015   0.666508321   0.119154635
Nb       0.001208933   0.501667118   0.057422636
Se       0.333333333   0.666666667  -0.005238057
Se       0.333333333   0.666666667   0.119969409
Nb       0.500458185  -0.001208933   0.057422636
Se       0.833659257   0.167353022  -0.005057204
Se       0.834743306   0.168234985   0.119154635
End Atoms_Frac

Begin Projections
Cr  : d
Br  : p
Nb  :dz2,dx2-y2,dxy
Se  : p
End Projections

begin kpoint_path
G 0      0      0   K 0.5   0      0
K 0.5    0      0   M 0.333 0.333  0
M 0.333  0.333  0   G 0     0      0
end kpoint_path


Begin Unit_Cell_Cart
   6.825066884  -0.000000000   0.000000000
  -3.412533442   5.910681301   0.000000000
   0.000000000   0.000000000  27.331139523
End Unit_Cell_Cart

mp_grid      = 9 9 1

begin kpoints
0.00000000  0.00000000  0.00000000
0.00000000  0.11111111  0.00000000
0.00000000  0.22222222  0.00000000
0.00000000  0.33333333  0.00000000
0.00000000  0.44444444  0.00000000
0.00000000  0.55555556  0.00000000
0.00000000  0.66666667  0.00000000
0.00000000  0.77777778  0.00000000
0.00000000  0.88888889  0.00000000
0.11111111  0.00000000  0.00000000
0.11111111  0.11111111  0.00000000
0.11111111  0.22222222  0.00000000
0.11111111  0.33333333  0.00000000
0.11111111  0.44444444  0.00000000
0.11111111  0.55555556  0.00000000
0.11111111  0.66666667  0.00000000
0.11111111  0.77777778  0.00000000
0.11111111  0.88888889  0.00000000
0.22222222  0.00000000  0.00000000
0.22222222  0.11111111  0.00000000
0.22222222  0.22222222  0.00000000
0.22222222  0.33333333  0.00000000
0.22222222  0.44444444  0.00000000
0.22222222  0.55555556  0.00000000
0.22222222  0.66666667  0.00000000
0.22222222  0.77777778  0.00000000
0.22222222  0.88888889  0.00000000
0.33333333  0.00000000  0.00000000
0.33333333  0.11111111  0.00000000
0.33333333  0.22222222  0.00000000
0.33333333  0.33333333  0.00000000
0.33333333  0.44444444  0.00000000
0.33333333  0.55555556  0.00000000
0.33333333  0.66666667  0.00000000
0.33333333  0.77777778  0.00000000
0.33333333  0.88888889  0.00000000
0.44444444  0.00000000  0.00000000
0.44444444  0.11111111  0.00000000
0.44444444  0.22222222  0.00000000
0.44444444  0.33333333  0.00000000
0.44444444  0.44444444  0.00000000
0.44444444  0.55555556  0.00000000
0.44444444  0.66666667  0.00000000
0.44444444  0.77777778  0.00000000
0.44444444  0.88888889  0.00000000
0.55555556  0.00000000  0.00000000
0.55555556  0.11111111  0.00000000
0.55555556  0.22222222  0.00000000
0.55555556  0.33333333  0.00000000
0.55555556  0.44444444  0.00000000
0.55555556  0.55555556  0.00000000
0.55555556  0.66666667  0.00000000
0.55555556  0.77777778  0.00000000
0.55555556  0.88888889  0.00000000
0.66666667  0.00000000  0.00000000
0.66666667  0.11111111  0.00000000
0.66666667  0.22222222  0.00000000
0.66666667  0.33333333  0.00000000
0.66666667  0.44444444  0.00000000
0.66666667  0.55555556  0.00000000
0.66666667  0.66666667  0.00000000
0.66666667  0.77777778  0.00000000
0.66666667  0.88888889  0.00000000
0.77777778  0.00000000  0.00000000
0.77777778  0.11111111  0.00000000
0.77777778  0.22222222  0.00000000
0.77777778  0.33333333  0.00000000
0.77777778  0.44444444  0.00000000
0.77777778  0.55555556  0.00000000
0.77777778  0.66666667  0.00000000
0.77777778  0.77777778  0.00000000
0.77777778  0.88888889  0.00000000
0.88888889  0.00000000  0.00000000
0.88888889  0.11111111  0.00000000
0.88888889  0.22222222  0.00000000
0.88888889  0.33333333  0.00000000
0.88888889  0.44444444  0.00000000
0.88888889  0.55555556  0.00000000
0.88888889  0.66666667  0.00000000
0.88888889  0.77777778  0.00000000
0.88888889  0.88888889  0.00000000
end kpoints
