!!!!!!!!!!!!!!!!!!!!!!!!!!!!!!!!!!!!!!!!!!!!!!!!!!!!!!!!!!!!!!!!!!!!!!!!!!!!!!!!
!!!!!!!!!!!!!!!!!!!!!!!!!!!!!!VARIABLES TO SELECT!!!!!!!!!!!!!!!!!!!!!!!!!!!!!!!
!!!!!!!!!!!!!!!!!!!!!!!!!!!!!!!!!!!!!!!!!!!!!!!!!!!!!!!!!!!!!!!!!!!!!!!!!!!!!!!!

num_bands = 450
num_wann = 181
dis_win_max = 30.0
dis_win_min = -30.0
dis_froz_max = 2.5
dis_froz_min = -6.0
dis_num_iter = 4000 
num_iter = 500 
num_print_cycles = 50 

Begin Projections 
Cr:d
Nb:d
Se:p
End Projections 

!!! KPATH !!!
begin kpoint_path 
Γ 0.000 0.000 0.000 M 0.500 0.000 0.000
M 0.500 0.000 0.000 K 0.333 0.333 0.000
K 0.333 0.333 0.000 Γ 0.000 0.000 0.000
end kpoint_path 

!!!!!!!!!!!!!!!!!!!!!!!!!!!!!!!!!!!!!!!!!!!!!!!!!!!!!!!!!!!!!!!!!!!!!!!!!!!!!!!!
!!!!!!!!!!!!!!!!!!!!!!!!!!!!FLAGS TO PLOT AND DEBUG!!!!!!!!!!!!!!!!!!!!!!!!!!!!!
!!!!!!!!!!!!!!!!!!!!!!!!!!!!!!!!!!!!!!!!!!!!!!!!!!!!!!!!!!!!!!!!!!!!!!!!!!!!!!!!

write_xyz = true 
write_hr = true 
bands_plot = true 
iprint = 3
!restart = plot
!restart = wannierise

!!! for fatbands !!!
!bands_plot_project = i-j 

!!! for WF plot !!!
!REMEMBER TO ACTIVATE write_unk = .true. in pw2wan file
!wannier_plot_format = xcrysden 
!wannier_plot_supercell = 3 3 1 
!wannier_plot =  true 
!wannier_plot_list = i-j
!spin = up
!spin = down
!wannier_plot_spinor_mode = up

!!! for DOS plot !!!
!dos = true  
!dos_kmesh = 25
!dos_project = i,j,k

!!!!!!!!!!!!!!!!!!!!!!!!!!!!!!!!!!!!!!!!!!!!!!!!!!!!!!!!!!!!!!!!!!!!!!!!!!!!!!!!
!!!!!!!!!!!!!!!!!!!!!!!!!!!!!!!!!!FIXED FLAGS!!!!!!!!!!!!!!!!!!!!!!!!!!!!!!!!!!!
!!!!!!!!!!!!!!!!!!!!!!!!!!!!!!!!!!!!!!!!!!!!!!!!!!!!!!!!!!!!!!!!!!!!!!!!!!!!!!!!

guiding_centres = T 

Begin Unit_Cell_Cart
13.784170959 0.000000000 0.000000000 
-6.892085479 11.937442220 0.000000000 
0.000000000 0.000000000 23.631429870 
End Unit_Cell_Cart

Begin Atoms_Frac
Cr 0.666666667 0.583333333 0.238740215 
Nb -0.003878970 0.000422789 0.071111756 
Se 0.166691669 0.083308331 0.001085291 
Se 0.166611756 0.083388244 0.141128752 
Nb 0.251197864 -0.001197864 0.071080890 
Se 0.416375266 0.082750530 -0.001115064 
Se 0.416805981 0.083611961 0.143078369 
Nb 0.497604272 -0.001197864 0.071080890 
Se 0.666616664 0.083308331 0.001085291 
Se 0.666776489 0.083388244 0.141128752 
Nb 0.754301760 0.000422789 0.071111756 
Se 0.917312584 0.084625167 -0.001449312 
Se 0.917293231 0.084586460 0.143726710 
Nb 0.754301760 0.253878971 0.071111756 
Se 0.917312584 0.332687416 -0.001449312 
Se 0.917293231 0.332706769 0.143726710 
Nb 0.755816025 0.494183975 0.070266946 
Se 0.919009443 0.584424863 -0.001056065 
Se 0.918120867 0.584198647 0.142989527 
Nb 0.755816025 0.761632051 0.070266946 
Se 0.919009443 0.834584579 -0.001056065 
Se 0.918120867 0.833922219 0.142989527 
Nb 0.499259179 0.750740821 0.070727123 
Se 0.665575137 0.834584579 -0.001056065 
Se 0.665801353 0.833922219 0.142989527 
Nb 0.251197864 0.752395728 0.071080890 
Se 0.416375266 0.833624734 -0.001115064 
Se 0.416805981 0.833194019 0.143078369 
Nb 0.001481643 0.750740821 0.070727123 
Se 0.167249470 0.833624734 -0.001115064 
Se 0.166388039 0.833194019 0.143078369 
Nb 0.499259179 0.248518357 0.070727123 
Se 0.665575137 0.330990558 -0.001056065 
Se 0.665801353 0.331879133 0.142989527 
Nb 0.488367950 0.494183975 0.070266946 
Se 0.666666667 0.583333333 0.004851404 
Se 0.666666667 0.583333333 0.136329639 
Nb 0.249577211 0.495698240 0.071111756 
Se 0.415415421 0.584424863 -0.001056065 
Se 0.416077781 0.584198647 0.142989527 
Nb 0.249577211 0.253878971 0.071111756 
Se 0.415415421 0.330990558 -0.001056065 
Se 0.416077781 0.331879133 0.142989527 
Nb -0.000000000 0.250000000 0.071140741 
Se 0.165374833 0.332687416 -0.001449312 
Se 0.165413540 0.332706769 0.143726710 
Nb -0.003878970 0.495698240 0.071111756 
Se 0.166691669 0.583383336 0.001085291 
Se 0.166611756 0.583223511 0.141128752 
End Atoms_Frac

mp_grid = 4  4  1  
begin kpoints 
  0.00000000  0.00000000  0.00000000
  0.00000000  0.25000000  0.00000000
  0.00000000  0.50000000  0.00000000
  0.00000000  0.75000000  0.00000000
  0.25000000  0.00000000  0.00000000
  0.25000000  0.25000000  0.00000000
  0.25000000  0.50000000  0.00000000
  0.25000000  0.75000000  0.00000000
  0.50000000  0.00000000  0.00000000
  0.50000000  0.25000000  0.00000000
  0.50000000  0.50000000  0.00000000
  0.50000000  0.75000000  0.00000000
  0.75000000  0.00000000  0.00000000
  0.75000000  0.25000000  0.00000000
  0.75000000  0.50000000  0.00000000
  0.75000000  0.75000000  0.00000000
end kpoints 
!!!!!!!!!!!!!!!!!!!!!!!!!!!!!!!!!!END OF FILE!!!!!!!!!!!!!!!!!!!!!!!!!!!!!!!!!!!
