!!!!!!!!!!!!!!!!!!!!!!!!!!!!!!!!!!!!!!!!!!!!!!!!!!!!!!!!!!!!!!!!!!!!!!!!!!!!!!!!
!!!!!!!!!!!!!!!!!!!!!!!!!!!!!!VARIABLES TO SELECT!!!!!!!!!!!!!!!!!!!!!!!!!!!!!!!
!!!!!!!!!!!!!!!!!!!!!!!!!!!!!!!!!!!!!!!!!!!!!!!!!!!!!!!!!!!!!!!!!!!!!!!!!!!!!!!!

num_bands = 450
num_wann = 191
dis_win_max = 30.0
dis_win_min = -30.0
dis_froz_max = 2.5
dis_froz_min = -6.0
dis_num_iter = 4000 
num_iter = 500 
num_print_cycles = 50 

Begin Projections 
Cr:d
Nb:d
Se:p
End Projections 

!!! KPATH !!!
begin kpoint_path 
Γ 0.000 0.000  0.000 X 0.500 0.000  0.000
X 0.500 0.000  0.000 S 0.500 0.500  0.000
S 0.500 0.500  0.000 Y 0.000 0.500  0.000
Y 0.000 0.500  0.000 Γ 0.000 0.000  0.000
end kpoint_path 

!!!!!!!!!!!!!!!!!!!!!!!!!!!!!!!!!!!!!!!!!!!!!!!!!!!!!!!!!!!!!!!!!!!!!!!!!!!!!!!!
!!!!!!!!!!!!!!!!!!!!!!!!!!!!FLAGS TO PLOT AND DEBUG!!!!!!!!!!!!!!!!!!!!!!!!!!!!!
!!!!!!!!!!!!!!!!!!!!!!!!!!!!!!!!!!!!!!!!!!!!!!!!!!!!!!!!!!!!!!!!!!!!!!!!!!!!!!!!

write_xyz = true 
write_hr = true 
bands_plot = true 
iprint = 3
!restart = plot
!restart = wannierise

!!! for fatbands !!!
!bands_plot_project = i-j 

!!! for WF plot !!!
!REMEMBER TO ACTIVATE write_unk = .true. in pw2wan file
!wannier_plot_format = xcrysden 
!wannier_plot_supercell = 3 3 1 
!wannier_plot =  true 
!wannier_plot_list = i-j
!spin = up
!spin = down
!wannier_plot_spinor_mode = up

!!! for DOS plot !!!
!dos = true  
!dos_kmesh = 25
!dos_project = i,j,k

!!!!!!!!!!!!!!!!!!!!!!!!!!!!!!!!!!!!!!!!!!!!!!!!!!!!!!!!!!!!!!!!!!!!!!!!!!!!!!!!
!!!!!!!!!!!!!!!!!!!!!!!!!!!!!!!!!!FIXED FLAGS!!!!!!!!!!!!!!!!!!!!!!!!!!!!!!!!!!!
!!!!!!!!!!!!!!!!!!!!!!!!!!!!!!!!!!!!!!!!!!!!!!!!!!!!!!!!!!!!!!!!!!!!!!!!!!!!!!!!

guiding_centres = T 

Begin Unit_Cell_Cart
13.784170959 0.000000000 0.000000000 
-6.892085479 11.937442220 0.000000000 
0.000000000 0.000000000 23.631429870 
End Unit_Cell_Cart

Begin Atoms_Frac
Cr 0.333333333 0.666666667 0.166853474 
Cr 0.580000000 0.666666667 0.166853474 
Cr 0.850000000 0.666666667 0.166853474 
Nb 0.000000000 0.000000000 0.071696687 
Se 0.167211899 0.083605949 0.000628676 
Se 0.166895159 0.083447579 0.142899780 
Nb 0.251887617 0.000240620 0.072011320 
Se 0.415441976 0.081430584 -0.001557602 
Se 0.419106404 0.089275318 0.141882848 
Nb 0.502284256 0.004568511 0.070843999 
Se 0.665988609 0.081430584 -0.001557602 
Se 0.670168915 0.089275318 0.141882848 
Nb 0.748353003 0.000240620 0.072011320 
Se 0.916394051 0.083605949 0.000628676 
Se 0.916552421 0.083447579 0.142899780 
Nb 0.748497243 0.251502757 0.068284876 
Se 0.918569416 0.334011391 -0.001557602 
Se 0.910724682 0.329831085 0.141882848 
Nb 0.748497243 0.496994486 0.068284876 
Se 0.918569416 0.584558024 -0.001557602 
Se 0.910724682 0.580893596 0.141882848 
Nb 0.748353003 0.748112383 0.072011320 
Se 0.916394051 0.832788101 0.000628676 
Se 0.916552421 0.833104841 0.142899780 
Nb 0.500321533 0.750160767 0.078585643 
Se 0.662202225 0.831101112 0.002980370 
Se 0.671715220 0.835857609 0.145466294 
Nb 0.249839233 0.750160767 0.078585643 
Se 0.414892894 0.829785788 0.005596920 
Se 0.428253424 0.856506848 0.149921743 
Nb -0.000240619 0.748112383 0.072011320 
Se 0.168898888 0.831101112 0.002980370 
Se 0.164142391 0.835857609 0.145466294 
Nb 0.503005514 0.251502757 0.068284876 
Se 0.666666667 0.333333333 -0.004320309 
Se 0.666666667 0.333333333 0.141048264 
Nb 0.502284256 0.497715744 0.070843999 
Se 0.665988609 0.584558024 -0.001557602 
Se 0.670168915 0.580893596 0.141882848 
Nb 0.249839233 0.499678467 0.078585643 
Se 0.414892894 0.585107106 0.005596920 
Se 0.428253424 0.571746576 0.149921743 
Nb 0.251887617 0.251646997 0.072011320 
Se 0.415441976 0.334011391 -0.001557602 
Se 0.419106404 0.329831085 0.141882848 
Nb -0.000240619 0.251646997 0.072011320 
Se 0.168898888 0.337797774 0.002980370 
Se 0.164142391 0.328284780 0.145466294 
Nb -0.004568511 0.497715744 0.070843999 
Se 0.170214212 0.585107106 0.005596920 
Se 0.143493152 0.571746576 0.149921743 
End Atoms_Frac
mp_grid = 1  1  1  
begin kpoints 
  0.00000000  0.00000000  0.00000000
end kpoints 
!!!!!!!!!!!!!!!!!!!!!!!!!!!!!!!!!!END OF FILE!!!!!!!!!!!!!!!!!!!!!!!!!!!!!!!!!!!
