&CONTROL
calculation = 'scf'
  prefix='adatom',
  outdir='./tmp',
  pseudo_dir='/ptmp/jojaibal/YSR_Project',
  verbosity='low',
tstress = .false.
 tprnfor = .false.
 /

&SYSTEM
  ibrav = 4, a=13.7841709588d0, c=23.63142987d0
  nat=49,
  ntyp=3,
  ecutwfc=75.0d0,
  ecutrho=800.0d0,
  occupations='smearing',
  smearing='mp',
  degauss=0.02,
  nspin=2,
  starting_magnetization(1)=0.5,
  lda_plus_u=.true.,
  Hubbard_U(1)=4,
 !vdw_corr='grimme-d2'
/

&ELECTRONS
  diagonalization='david',
  conv_thr=1d-07,
  mixing_mode='local-TF',
  mixing_beta=0.7D0,
  electron_maxstep=1000,
/

ATOMIC_SPECIES
  Cr   51.9961  Cr.pbe-spn-kjpaw_psl.1.0.0.UPF
  Nb   92.90638  Nb.pbe-spn-kjpaw_psl.1.0.0.UPF
  Se   78.96000  Se.pbe-n-kjpaw_psl.1.0.0.UPF
  
ATOMIC_POSITIONS (crystal)
Cr 0.6666666670 0.5833333330 0.2387402147   
Nb -0.003878970 0.0004227890 0.0711117562   
Se 0.1666916686 0.0833083314 0.0010852911   
Se 0.1666117562 0.0833882438 0.1411287516   
Nb 0.2511978641 -0.001197864 0.0710808896   
Se 0.4163752657 0.0827505303 -0.001115064   
Se 0.4168059812 0.0836119614 0.1430783686   
Nb 0.4976042717 -0.001197864 0.0710808896   
Se 0.6666166638 0.0833083314 0.0010852911   
Se 0.6667764887 0.0833882438 0.1411287516   
Nb 0.7543017599 0.0004227890 0.0711117562   
Se 0.9173125841 0.0846251671 -0.001449312   
Se 0.9172932307 0.0845864604 0.1437267098   
Nb 0.7543017599 0.2538789709 0.0711117562   
Se 0.9173125841 0.3326874159 -0.001449312   
Se 0.9172932307 0.3327067693 0.1437267098   
Nb 0.7558160252 0.4941839748 0.0702669465   
Se 0.9190094425 0.5844248628 -0.001056065   
Se 0.9181208674 0.5841986472 0.1429895270   
Nb 0.7558160252 0.7616320505 0.0702669465   
Se 0.9190094425 0.8345845788 -0.001056065   
Se 0.9181208674 0.8339222192 0.1429895270   
Nb 0.4992591785 0.7507408215 0.0707271233   
Se 0.6655751372 0.8345845788 -0.001056065   
Se 0.6658013528 0.8339222192 0.1429895270   
Nb 0.2511978641 0.7523957283 0.0710808896   
Se 0.4163752657 0.8336247343 -0.001115064   
Se 0.4168059812 0.8331940188 0.1430783686   
Nb 0.0014816430 0.7507408215 0.0707271233   
Se 0.1672494697 0.8336247343 -0.001115064   
Se 0.1663880386 0.8331940188 0.1430783686   
Nb 0.4992591785 0.2485183570 0.0707271233   
Se 0.6655751372 0.3309905575 -0.001056065   
Se 0.6658013528 0.3318791326 0.1429895270   
Nb 0.4883679495 0.4941839748 0.0702669465   
Se 0.6666666670 0.5833333330 0.0048514035   
Se 0.6666666670 0.5833333330 0.1363296389   
Nb 0.2495772110 0.4956982401 0.0711117562   
Se 0.4154154212 0.5844248628 -0.001056065   
Se 0.4160777808 0.5841986472 0.1429895270   
Nb 0.2495772110 0.2538789709 0.0711117562   
Se 0.4154154212 0.3309905575 -0.001056065   
Se 0.4160777808 0.3318791326 0.1429895270   
Nb -0.000000000 0.2500000000 0.0711407412   
Se 0.1653748329 0.3326874159 -0.001449312   
Se 0.1654135396 0.3327067693 0.1437267098   
Nb -0.003878970 0.4956982401 0.0711117562   
Se 0.1666916686 0.5833833362 0.0010852911   
Se 0.1666117562 0.5832235113 0.1411287516   

K_POINTS {automatic}
6 6 1 0 0 0

