!!!!!!!!!!!!!!!!!!!!!!!!!!!!!!!!!!!!!!!!!!!!!!!!!!!!!!!!!!!!!!!!!!!!!!!!!!!!!!!!
!!!!!!!!!!!!!!!!!!!!!!!!!!!!!!VARIABLES TO SELECT!!!!!!!!!!!!!!!!!!!!!!!!!!!!!!!
!!!!!!!!!!!!!!!!!!!!!!!!!!!!!!!!!!!!!!!!!!!!!!!!!!!!!!!!!!!!!!!!!!!!!!!!!!!!!!!!

num_bands = 300
num_wann = 176
dis_win_max = 30.0
dis_win_min = -30.0
dis_froz_max = 2.50
dis_froz_min = -6.0
dis_num_iter = 4000 
num_iter = 500 
num_print_cycles = 50 

Begin Projections 
Nb:d
Se:p
End Projections 

!!! KPATH !!!
begin kpoint_path 
Γ 0.000 0.000 0.000 K 0.333 0.333 0.000
K 0.333 0.333 0.000 M 0.500 0.000 0.000
M 0.500 0.000 0.000 Γ 0.000 0.000 0.000
end kpoint_path 

!!!!!!!!!!!!!!!!!!!!!!!!!!!!!!!!!!!!!!!!!!!!!!!!!!!!!!!!!!!!!!!!!!!!!!!!!!!!!!!!
!!!!!!!!!!!!!!!!!!!!!!!!!!!!FLAGS TO PLOT AND DEBUG!!!!!!!!!!!!!!!!!!!!!!!!!!!!!
!!!!!!!!!!!!!!!!!!!!!!!!!!!!!!!!!!!!!!!!!!!!!!!!!!!!!!!!!!!!!!!!!!!!!!!!!!!!!!!!

write_xyz = true 
write_hr = true 
bands_plot = true 
iprint = 3
!restart = plot
!restart = wannierise

!!! for fatbands !!!
!bands_plot_project = i-j 

!!! for WF plot !!!
!REMEMBER TO ACTIVATE write_unk = .true. in pw2wan file
!wannier_plot_format = xcrysden 
!wannier_plot_supercell = 3 3 1 
!wannier_plot =  true 
!wannier_plot_list = i-j

!!! for DOS plot !!!
dos = true  
dos_kmesh = 25
!dos_project = i,j,k

!!!!!!!!!!!!!!!!!!!!!!!!!!!!!!!!!!!!!!!!!!!!!!!!!!!!!!!!!!!!!!!!!!!!!!!!!!!!!!!!
!!!!!!!!!!!!!!!!!!!!!!!!!!!!!!!!!!FIXED FLAGS!!!!!!!!!!!!!!!!!!!!!!!!!!!!!!!!!!!
!!!!!!!!!!!!!!!!!!!!!!!!!!!!!!!!!!!!!!!!!!!!!!!!!!!!!!!!!!!!!!!!!!!!!!!!!!!!!!!!

guiding_centres = T 

Begin Unit_Cell_Cart
13.784170959 0.000000000 0.000000000 
-6.892085479 11.937442220 0.000000000 
0.000000000 0.000000000 23.631429870 
End Unit_Cell_Cart

Begin Atoms_Frac
Nb 0.000000000 0.000000000 0.070971248 
Se 0.166666667 0.083333333 0.000000000 
Se 0.166666667 0.083333333 0.141942494 
Nb 0.250000000 0.000000000 0.070971248 
Se 0.416666667 0.083333333 0.000000000 
Se 0.416666667 0.083333333 0.141942494 
Nb 0.500000000 0.000000000 0.070971248 
Se 0.666666667 0.083333333 0.000000000 
Se 0.666666667 0.083333333 0.141942494 
Nb 0.750000000 0.000000000 0.070971248 
Se 0.916666667 0.083333333 0.000000000 
Se 0.916666667 0.083333333 0.141942494 
Nb 0.750000000 0.250000000 0.070971248 
Se 0.916666667 0.333333333 0.000000000 
Se 0.916666667 0.333333333 0.141942494 
Nb 0.750000000 0.500000000 0.070971248 
Se 0.916666667 0.583333333 0.000000000 
Se 0.916666667 0.583333333 0.141942494 
Nb 0.750000000 0.750000000 0.070971248 
Se 0.916666667 0.833333333 0.000000000 
Se 0.916666667 0.833333333 0.141942494 
Nb 0.500000000 0.750000000 0.070971248 
Se 0.666666667 0.833333333 0.000000000 
Se 0.666666667 0.833333333 0.141942494 
Nb 0.250000000 0.750000000 0.070971248 
Se 0.416666667 0.833333333 0.000000000 
Se 0.416666667 0.833333333 0.141942494 
Nb 0.000000000 0.750000000 0.070971248 
Se 0.166666667 0.833333333 0.000000000 
Se 0.166666667 0.833333333 0.141942494 
Nb 0.500000000 0.250000000 0.070971248 
Se 0.666666667 0.333333333 0.000000000 
Se 0.666666667 0.333333333 0.141942494 
Nb 0.500000000 0.500000000 0.070971248 
Se 0.666666667 0.583333333 0.000000000 
Se 0.666666667 0.583333333 0.141942494 
Nb 0.250000000 0.500000000 0.070971248 
Se 0.416666667 0.583333333 0.000000000 
Se 0.416666667 0.583333333 0.141942494 
Nb 0.250000000 0.250000000 0.070971248 
Se 0.416666667 0.333333333 0.000000000 
Se 0.416666667 0.333333333 0.141942494 
Nb 0.000000000 0.250000000 0.070971248 
Se 0.166666667 0.333333333 0.000000000 
Se 0.166666667 0.333333333 0.141942494 
Nb 0.000000000 0.500000000 0.070971248 
Se 0.166666667 0.583333333 0.000000000 
Se 0.166666667 0.583333333 0.141942494 
End Atoms_Frac

mp_grid = 1 1 1  
begin kpoints 
  0.00000000  0.00000000  0.00000000
end kpoints 
!!!!!!!!!!!!!!!!!!!!!!!!!!!!!!!!!!END OF FILE!!!!!!!!!!!!!!!!!!!!!!!!!!!!!!!!!!!
