!!!!!!!!!!!!!!!!!!!!!!!!!!!!!!!!!!!!!!!!!!!!!!!!!!!!!!!!!!!!!!!!!!!!!!!!!!!!!!!!
!!!!!!!!!!!!!!!!!!!!!!!!!!!!!!VARIABLES TO SELECT!!!!!!!!!!!!!!!!!!!!!!!!!!!!!!!
!!!!!!!!!!!!!!!!!!!!!!!!!!!!!!!!!!!!!!!!!!!!!!!!!!!!!!!!!!!!!!!!!!!!!!!!!!!!!!!!

num_bands = 336
num_wann = 176
dis_win_max = 7.0
dis_win_min = -7.0
dis_froz_max = 0.0
dis_froz_min = -2.0
dis_num_iter = 4000 
num_iter = 500 
num_print_cycles = 50 

Begin Projections 
Cr:d
Nb:d
Se:p
End Projections 

!!! KPATH !!!
begin kpoint_path 
Γ 0.000 0.000 0.000 M 0.500 0.000 0.000
M 0.500 0.000 0.000 K 0.333 0.333 0.000
K 0.333 0.333 0.000 Γ 0.000 0.000 0.000
end kpoint_path 

!!!!!!!!!!!!!!!!!!!!!!!!!!!!!!!!!!!!!!!!!!!!!!!!!!!!!!!!!!!!!!!!!!!!!!!!!!!!!!!!
!!!!!!!!!!!!!!!!!!!!!!!!!!!!FLAGS TO PLOT AND DEBUG!!!!!!!!!!!!!!!!!!!!!!!!!!!!!
!!!!!!!!!!!!!!!!!!!!!!!!!!!!!!!!!!!!!!!!!!!!!!!!!!!!!!!!!!!!!!!!!!!!!!!!!!!!!!!!

write_xyz = true 
write_hr = true 
bands_plot = true 
iprint = 3
!restart = plot
!restart = wannierise

!!! for fatbands !!!
!bands_plot_project = i-j 

!!! for WF plot !!!
!REMEMBER TO ACTIVATE write_unk = .true. in pw2wan file
!wannier_plot_format = xcrysden 
!wannier_plot_supercell = 3 3 1 
!wannier_plot =  true 
!wannier_plot_list = i-j
!spin = up
!spin = down
!wannier_plot_spinor_mode = up

!!! for DOS plot !!!
!dos = true  
!dos_kmesh = 25
!dos_project = i,j,k

!!!!!!!!!!!!!!!!!!!!!!!!!!!!!!!!!!!!!!!!!!!!!!!!!!!!!!!!!!!!!!!!!!!!!!!!!!!!!!!!
!!!!!!!!!!!!!!!!!!!!!!!!!!!!!!!!!!FIXED FLAGS!!!!!!!!!!!!!!!!!!!!!!!!!!!!!!!!!!!
!!!!!!!!!!!!!!!!!!!!!!!!!!!!!!!!!!!!!!!!!!!!!!!!!!!!!!!!!!!!!!!!!!!!!!!!!!!!!!!!

guiding_centres = T 

Begin Unit_Cell_Cart
13.881268310 -0.000000000 0.000000000 
-6.940634150 12.021530980 0.000000000 
0.000000000 0.000000000 21.390217210 
End Unit_Cell_Cart

Begin Atoms_Frac
Cr 0.500000000 0.500000000 0.078907194 
Nb 0.000008504 -0.000008503 0.079046650 
Nb 0.249564148 -0.000871703 0.079004492 
Nb -0.004541059 0.247729471 0.079011579 
Nb 0.248327850 0.249191712 0.078935109 
Nb 0.499982991 -0.000008503 0.079046650 
Nb 0.500863862 0.249191712 0.078935109 
Nb 0.248327850 0.499136138 0.078935109 
Nb 0.000008504 0.500017009 0.079046650 
Nb 0.752270529 0.004541060 0.079011579 
Nb 0.752270529 0.247729471 0.079011579 
Nb 0.750808288 0.499136138 0.078935109 
Nb 0.750808288 0.751672150 0.078935109 
Nb 0.500863862 0.751672150 0.078935109 
Nb 0.249564148 0.750435852 0.079004492 
Nb 0.000871703 0.750435852 0.079004492 
Se 0.167027191 0.083120839 0.000278757 
Se 0.167119102 0.083224409 0.157792784 
Se 0.416093650 0.083120839 0.000278757 
Se 0.416105309 0.083224409 0.157792784 
Se 0.166569412 0.333284705 0.000757405 
Se 0.166640900 0.333320449 0.157202437 
Se 0.419229905 0.338459807 0.003126788 
Se 0.419201917 0.338403833 0.154759793 
Se 0.666016672 0.083008335 -0.000162487 
Se 0.666026550 0.083013274 0.158302402 
Se 0.666715295 0.333284705 0.000757405 
Se 0.666679551 0.333320449 0.157202437 
Se 0.661540192 0.580770095 0.003126788 
Se 0.661596167 0.580798083 0.154759793 
Se 0.419229905 0.580770095 0.003126788 
Se 0.419201917 0.580798083 0.154759793 
Se 0.167027191 0.583906350 0.000278757 
Se 0.167119102 0.583894691 0.157792784 
Se 0.916991665 0.083008335 -0.000162487 
Se 0.916986726 0.083013274 0.158302402 
Se 0.916991665 0.333983328 -0.000162487 
Se 0.916986726 0.333973450 0.158302402 
Se 0.916879161 0.583906350 0.000278757 
Se 0.916775591 0.583894691 0.157792784 
Se 0.916879161 0.832972809 0.000278757 
Se 0.916775591 0.832880899 0.157792784 
Se 0.666715295 0.833430588 0.000757405 
Se 0.666679551 0.833359100 0.157202437 
Se 0.416093650 0.832972809 0.000278757 
Se 0.416105309 0.832880899 0.157792784 
Se 0.166666667 0.833333333 -0.000085749 
Se 0.166666667 0.833333333 0.158190229 
End Atoms_Frac

mp_grid = 4  4  1  
begin kpoints 
  0.00000000  0.00000000  0.00000000
  0.00000000  0.25000000  0.00000000
  0.00000000  0.50000000  0.00000000
  0.00000000  0.75000000  0.00000000
  0.25000000  0.00000000  0.00000000
  0.25000000  0.25000000  0.00000000
  0.25000000  0.50000000  0.00000000
  0.25000000  0.75000000  0.00000000
  0.50000000  0.00000000  0.00000000
  0.50000000  0.25000000  0.00000000
  0.50000000  0.50000000  0.00000000
  0.50000000  0.75000000  0.00000000
  0.75000000  0.00000000  0.00000000
  0.75000000  0.25000000  0.00000000
  0.75000000  0.50000000  0.00000000
  0.75000000  0.75000000  0.00000000
end kpoints 
!!!!!!!!!!!!!!!!!!!!!!!!!!!!!!!!!!END OF FILE!!!!!!!!!!!!!!!!!!!!!!!!!!!!!!!!!!!
