&CONTROL 
calculation = 'scf'
  prefix='nbse2cr',
  outdir='./tmp',
  pseudo_dir=' /ptmp/jojaibal/YSR_Project/',
  verbosity='low',
/

&SYSTEM
 ibrav = 0
  ibrav=0,
  nat=48,
  ntyp=3,
  ecutwfc=75.0d0,
  ecutrho=500.0d0,
  occupations='smearing',
  smearing='mp',
  degauss=0.02,
  nspin=2,
  starting_magnetization(1)=0.5,
  lda_plus_u=.true., Hubbard_U(1)=4,
/

&ELECTRONS
  diagonalization='david',
  conv_thr=1d-07,
  mixing_mode='local-TF',
  mixing_beta=0.7D0,
  electron_maxstep=1000,
/

ATOMIC_SPECIES
  Cr   51.9961  Cr.pbe-spn-kjpaw_psl.1.0.0.UPF
  Nb   92.90638  Nb.pbe-spn-kjpaw_psl.1.0.0.UPF
  Se   78.96000  Se.pbe-n-kjpaw_psl.1.0.0.UPF

CELL_PARAMETERS (angstrom)
13.88126831 -0.          0.        
-6.94063415 12.02153098  0.        
 0.          0.         21.39021721
ATOMIC_POSITIONS (crystal)
Cr 0.5000000000 0.5000000000 0.0789071942   
Nb 0.0000085038 -0.000008503 0.0790466501   
Nb 0.2495641480 -0.000871703 0.0790044925   
Nb -0.004541059 0.2477294707 0.0790115793   
Nb 0.2483278498 0.2491917122 0.0789351085   
Nb 0.4999829914 -0.000008503 0.0790466501   
Nb 0.5008638624 0.2491917122 0.0789351085   
Nb 0.2483278498 0.4991361376 0.0789351085   
Nb 0.0000085038 0.5000170086 0.0790466501   
Nb 0.7522705293 0.0045410596 0.0790115793   
Nb 0.7522705293 0.2477294707 0.0790115793   
Nb 0.7508082878 0.4991361376 0.0789351085   
Nb 0.7508082878 0.7516721501 0.0789351085   
Nb 0.5008638624 0.7516721501 0.0789351085   
Nb 0.2495641480 0.7504358520 0.0790044925   
Nb 0.0008717031 0.7504358520 0.0790044925   
Se 0.1670271914 0.0831208392 0.0002787565   
Se 0.1671191015 0.0832244094 0.1577927838   
Se 0.4160936497 0.0831208392 0.0002787565   
Se 0.4161053089 0.0832244094 0.1577927838   
Se 0.1665694117 0.3332847054 0.0007574048   
Se 0.1666408998 0.3333204494 0.1572024370   
Se 0.4192299048 0.3384598075 0.0031267877   
Se 0.4192019170 0.3384038330 0.1547597927   
Se 0.6660166720 0.0830083350 -0.000162487   
Se 0.6660265501 0.0830132740 0.1583024017   
Se 0.6667152946 0.3332847054 0.0007574048   
Se 0.6666795506 0.3333204494 0.1572024370   
Se 0.6615401925 0.5807700952 0.0031267877   
Se 0.6615961670 0.5807980830 0.1547597927   
Se 0.4192299048 0.5807700952 0.0031267877   
Se 0.4192019170 0.5807980830 0.1547597927   
Se 0.1670271914 0.5839063503 0.0002787565   
Se 0.1671191015 0.5838946911 0.1577927838   
Se 0.9169916650 0.0830083350 -0.000162487   
Se 0.9169867260 0.0830132740 0.1583024017   
Se 0.9169916650 0.3339833280 -0.000162487   
Se 0.9169867260 0.3339734499 0.1583024017   
Se 0.9168791608 0.5839063503 0.0002787565   
Se 0.9167755906 0.5838946911 0.1577927838   
Se 0.9168791608 0.8329728086 0.0002787565   
Se 0.9167755906 0.8328808985 0.1577927838   
Se 0.6667152946 0.8334305883 0.0007574048   
Se 0.6666795506 0.8333591002 0.1572024370   
Se 0.4160936497 0.8329728086 0.0002787565   
Se 0.4161053089 0.8328808985 0.1577927838   
Se 0.1666666670 0.8333333330 -0.000085749   
Se 0.1666666670 0.8333333330 0.1581902290   


K_POINTS {automatic}
 6 6 1 0 0 0
