!!!!!!!!!!!!!!!!!!!!!!!!!!!!!!!!!!!!!!!!!!!!!!!!!!!!!!!!!!!!!!!!!!!!!!!!!!!!!!!!
!!!!!!!!!!!!!!!!!!!!!!!!!!!!!!VARIABLES TO SELECT!!!!!!!!!!!!!!!!!!!!!!!!!!!!!!!
!!!!!!!!!!!!!!!!!!!!!!!!!!!!!!!!!!!!!!!!!!!!!!!!!!!!!!!!!!!!!!!!!!!!!!!!!!!!!!!!

num_bands = 110
num_wann = 64
dis_win_max = 10.0
dis_win_min = -6.0
dis_froz_max = 1.0
dis_froz_min = -6.0
dis_num_iter = 4000 
num_iter = 500 
num_print_cycles = 50 

Begin Projections 
Cr:d
Br:p
Se:p
Nb:dz2,dx2-y2,dxy
End Projections 

!!! KPATH !!!
begin kpoint_path 
Γ 0.000 0.000 0.000 M 0.500 0.000 0.000
M 0.500 0.000 0.000 K 0.333 0.333 0.000
K 0.333 0.333 0.000 Γ 0.000 0.000 0.000
end kpoint_path 

!!!!!!!!!!!!!!!!!!!!!!!!!!!!!!!!!!!!!!!!!!!!!!!!!!!!!!!!!!!!!!!!!!!!!!!!!!!!!!!!
!!!!!!!!!!!!!!!!!!!!!!!!!!!!FLAGS TO PLOT AND DEBUG!!!!!!!!!!!!!!!!!!!!!!!!!!!!!
!!!!!!!!!!!!!!!!!!!!!!!!!!!!!!!!!!!!!!!!!!!!!!!!!!!!!!!!!!!!!!!!!!!!!!!!!!!!!!!!

write_xyz = true 
write_hr = true 
bands_plot = true 
iprint = 3
!restart = plot
!restart = wannierise

!!! for fatbands !!!
!bands_plot_project = i-j 

!!! for WF plot !!!
!REMEMBER TO ACTIVATE write_unk = .true. in pw2wan file
!wannier_plot_format = xcrysden 
!wannier_plot_supercell = 3 3 1 
!wannier_plot =  true 
!wannier_plot_list = i-j
!spin = up
!spin = down
!wannier_plot_spinor_mode = up

!!! for DOS plot !!!
!dos = true  
!dos_kmesh = 25
!dos_project = i,j,k

!!!!!!!!!!!!!!!!!!!!!!!!!!!!!!!!!!!!!!!!!!!!!!!!!!!!!!!!!!!!!!!!!!!!!!!!!!!!!!!!
!!!!!!!!!!!!!!!!!!!!!!!!!!!!!!!!!!FIXED FLAGS!!!!!!!!!!!!!!!!!!!!!!!!!!!!!!!!!!!
!!!!!!!!!!!!!!!!!!!!!!!!!!!!!!!!!!!!!!!!!!!!!!!!!!!!!!!!!!!!!!!!!!!!!!!!!!!!!!!!

guiding_centres = T 

Begin Unit_Cell_Cart
6.821628300 0.000000000 0.000000000 
-3.410814147 5.907703401 0.000000000 
0.000000000 0.000000000 27.331139523 
End Unit_Cell_Cart

Begin Atoms_Frac
Cr 0.333333333 0.666666667 0.293727039 
Cr 0.666666667 0.333333333 0.293400786 
Br 0.364609886 0.365992200 0.240850880 
Br 0.634007800 -0.001382314 0.240850880 
Br 0.001382314 0.635390114 0.240850880 
Br 0.638714659 0.638283935 0.345510122 
Br 0.361716065 0.000430723 0.345510122 
Br -0.000430723 0.361285341 0.345510122 
Nb -0.000000000 -0.000000000 0.057456911 
Se 0.333744429 0.166248427 -0.004829707 
Se 0.333427885 0.164697725 0.119314792 
Nb 0.498532427 0.499590595 0.057583308 
Se 0.832503997 0.666255571 -0.004829707 
Se 0.831269839 0.666572115 0.119314792 
Nb 0.001058168 0.501467573 0.057583308 
Se 0.333333333 0.666666667 -0.005055295 
Se 0.333333333 0.666666667 0.120006103 
Nb 0.500409405 -0.001058168 0.057583308 
Se 0.833751573 0.167496003 -0.004829707 
Se 0.835302275 0.168730161 0.119314792 
End Atoms_Frac

mp_grid = 6  6  1  
begin kpoints 
  0.00000000  0.00000000  0.00000000
  0.00000000  0.16666667  0.00000000
  0.00000000  0.33333333  0.00000000
  0.00000000  0.50000000  0.00000000
  0.00000000  0.66666667  0.00000000
  0.00000000  0.83333333  0.00000000
  0.16666667  0.00000000  0.00000000
  0.16666667  0.16666667  0.00000000
  0.16666667  0.33333333  0.00000000
  0.16666667  0.50000000  0.00000000
  0.16666667  0.66666667  0.00000000
  0.16666667  0.83333333  0.00000000
  0.33333333  0.00000000  0.00000000
  0.33333333  0.16666667  0.00000000
  0.33333333  0.33333333  0.00000000
  0.33333333  0.50000000  0.00000000
  0.33333333  0.66666667  0.00000000
  0.33333333  0.83333333  0.00000000
  0.50000000  0.00000000  0.00000000
  0.50000000  0.16666667  0.00000000
  0.50000000  0.33333333  0.00000000
  0.50000000  0.50000000  0.00000000
  0.50000000  0.66666667  0.00000000
  0.50000000  0.83333333  0.00000000
  0.66666667  0.00000000  0.00000000
  0.66666667  0.16666667  0.00000000
  0.66666667  0.33333333  0.00000000
  0.66666667  0.50000000  0.00000000
  0.66666667  0.66666667  0.00000000
  0.66666667  0.83333333  0.00000000
  0.83333333  0.00000000  0.00000000
  0.83333333  0.16666667  0.00000000
  0.83333333  0.33333333  0.00000000
  0.83333333  0.50000000  0.00000000
  0.83333333  0.66666667  0.00000000
  0.83333333  0.83333333  0.00000000
end kpoints 
!!!!!!!!!!!!!!!!!!!!!!!!!!!!!!!!!!END OF FILE!!!!!!!!!!!!!!!!!!!!!!!!!!!!!!!!!!!
