&CONTROL
  calculation='scf',
  prefix='adatom',
  outdir='./tmp',
  pseudo_dir='/u/jojaibal/QuantumEspresso/pseudopotentials/',
  verbosity='low',
/

&SYSTEM
  ibrav = 4, a=13.7841709588d0, c=23.63142987d0
  nat=48,
  ntyp=2,
  ecutwfc=75.0d0,
  ecutrho=600.0d0,
  occupations='smearing',
  smearing='mp',
  degauss=0.02,
  nspin=2,
  starting_magnetization(1)=0.0,
  starting_magnetization(2)=0.0,
/

&ELECTRONS
  diagonalization='david',
  conv_thr=1d-07,
  mixing_mode='local-TF',
  mixing_beta=0.7D0,
  electron_maxstep=1000,
/

ATOMIC_SPECIES
  Nb   92.90638  Nb.pbe-spn-kjpaw_psl.1.0.0.UPF
  Se   78.96000  Se.pbe-n-kjpaw_psl.1.0.0.UPF
  
ATOMIC_POSITIONS (crystal)
Nb       0.000000000   0.000000000  0.070971248    0   0   0
Se       0.166666667   0.083333333  0    0   0   0
Se       0.166666667   0.083333333  0.141942494    0   0   0
Nb       0.250000000   0.000000000  0.070971248    0   0   0
Se       0.416666667   0.083333333  0    0   0   0
Se       0.416666667   0.083333333  0.141942494    0   0   0
Nb       0.500000000   0.000000000  0.070971248    0   0   0
Se       0.666666667   0.083333333  0    0   0   0
Se       0.666666667   0.083333333  0.141942494    0   0   0
Nb       0.750000000   0.000000000  0.070971248    0   0   0
Se       0.916666667   0.083333333  0    0   0   0
Se       0.916666667   0.083333333  0.141942494    0   0   0
Nb       0.750000000   0.250000000  0.070971248    0   0   0
Se       0.916666667   0.333333333  0    0   0   0
Se       0.916666667   0.333333333  0.141942494    0   0   0
Nb       0.750000000   0.500000000  0.070971248    0   0   0
Se       0.916666667   0.583333333  0    0   0   0
Se       0.916666667   0.583333333  0.141942494    0   0   0
Nb       0.750000000   0.750000000  0.070971248    0   0   0
Se       0.916666667   0.833333333  0    0   0   0
Se       0.916666667   0.833333333  0.141942494    0   0   0
Nb       0.500000000   0.750000000  0.070971248    0   0   0
Se       0.666666667   0.833333333  0    0   0   0
Se       0.666666667   0.833333333  0.141942494    0   0   0
Nb       0.250000000   0.750000000  0.070971248    0   0   0
Se       0.416666667   0.833333333  0    0   0   0
Se       0.416666667   0.833333333  0.141942494    0   0   0
Nb       0.000000000   0.750000000  0.070971248    0   0   0
Se       0.166666667   0.833333333  0    0   0   0
Se       0.166666667   0.833333333  0.141942494    0   0   0
Nb       0.500000000   0.250000000  0.070971248    0   0   0
Se       0.666666667   0.333333333  0    0   0   0
Se       0.666666667   0.333333333  0.141942494    0   0   0
Nb       0.500000000   0.500000000  0.070971248    0   0   0
Se       0.666666667   0.583333333  0    0   0   0
Se       0.666666667   0.583333333  0.141942494    0   0   0
Nb       0.250000000   0.500000000  0.070971248    0   0   0
Se       0.416666667   0.583333333  0    0   0   0
Se       0.416666667   0.583333333  0.141942494    0   0   0
Nb       0.250000000   0.250000000  0.070971248    0   0   0
Se       0.416666667   0.333333333  0    0   0   0
Se       0.416666667   0.333333333  0.141942494    0   0   0
Nb       0.000000000   0.250000000  0.070971248    0   0   0
Se       0.166666667   0.333333333  0    0   0   0
Se       0.166666667   0.333333333  0.141942494    0   0   0
Nb       0.000000000   0.500000000  0.070971248    0   0   0
Se       0.166666667   0.583333333  0    0   0   0
Se       0.166666667   0.583333333  0.141942494    0   0   0

K_POINTS {automatic}
6 6 1 0 0 0

