!!!!!!!!!!!!!!!!!!!!!!!!!!!!!!!!!!!!!!!!!!!!!!!!!!!!!!!!!!!!!!!!!!!!!!!!!!!!!!!!
!!!!!!!!!!!!!!!!!!!!!!!!!!!!!!VARIABLES TO SELECT!!!!!!!!!!!!!!!!!!!!!!!!!!!!!!!
!!!!!!!!!!!!!!!!!!!!!!!!!!!!!!!!!!!!!!!!!!!!!!!!!!!!!!!!!!!!!!!!!!!!!!!!!!!!!!!!

num_bands = 450
num_wann = 181
dis_win_max = 30.0
dis_win_min = -30.0
dis_froz_max = 1
dis_froz_min = -6.0
dis_num_iter = 4000 
num_iter = 500 
num_print_cycles = 50 

Begin Projections 
Cr:d
Nb:d
Se:p
End Projections 

!!! KPATH !!!
begin kpoint_path 
Γ 0.000 0.000 0.000 M 0.500 0.000 0.000
M 0.500 0.000 0.000 K 0.333 0.333 0.000
K 0.333 0.333 0.000 Γ 0.000 0.000 0.000
end kpoint_path 

!!!!!!!!!!!!!!!!!!!!!!!!!!!!!!!!!!!!!!!!!!!!!!!!!!!!!!!!!!!!!!!!!!!!!!!!!!!!!!!!
!!!!!!!!!!!!!!!!!!!!!!!!!!!!FLAGS TO PLOT AND DEBUG!!!!!!!!!!!!!!!!!!!!!!!!!!!!!
!!!!!!!!!!!!!!!!!!!!!!!!!!!!!!!!!!!!!!!!!!!!!!!!!!!!!!!!!!!!!!!!!!!!!!!!!!!!!!!!

write_xyz = true 
write_hr = true 
bands_plot = true 
iprint = 3
!restart = plot
!restart = wannierise

!!! for fatbands !!!
!bands_plot_project = i-j 

!!! for WF plot !!!
!REMEMBER TO ACTIVATE write_unk = .true. in pw2wan file
!wannier_plot_format = xcrysden 
!wannier_plot_supercell = 3 3 1 
!wannier_plot =  true 
!wannier_plot_list = i-j
!spin = up
!spin = down
!wannier_plot_spinor_mode = up

!!! for DOS plot !!!
!dos = true  
!dos_kmesh = 25
!dos_project = i,j,k

!!!!!!!!!!!!!!!!!!!!!!!!!!!!!!!!!!!!!!!!!!!!!!!!!!!!!!!!!!!!!!!!!!!!!!!!!!!!!!!!
!!!!!!!!!!!!!!!!!!!!!!!!!!!!!!!!!!FIXED FLAGS!!!!!!!!!!!!!!!!!!!!!!!!!!!!!!!!!!!
!!!!!!!!!!!!!!!!!!!!!!!!!!!!!!!!!!!!!!!!!!!!!!!!!!!!!!!!!!!!!!!!!!!!!!!!!!!!!!!!

guiding_centres = T 

Begin Unit_Cell_Cart
13.784170959 0.000000000 0.000000000 
-6.892085479 11.937442220 0.000000000 
0.000000000 0.000000000 23.631429870 
End Unit_Cell_Cart

Begin Atoms_Frac
Cr 0.750000000 0.750000000 0.198942251 
Nb 0.000200843 0.005781759 0.071985123 
Se 0.166629570 0.083756336 0.000213304 
Se 0.168356385 0.085235884 0.142536550 
Nb 0.249384593 -0.000307703 0.071187903 
Se 0.416666667 0.083333333 -0.000197758 
Se 0.416666667 0.083333333 0.142641943 
Nb 0.500307703 -0.000307703 0.071187903 
Se 0.667126766 0.083756336 0.000213304 
Se 0.666879501 0.085235884 0.142536550 
Nb 0.755580915 0.005781759 0.071985123 
Se 0.917238316 0.084476632 -0.000888162 
Se 0.918144277 0.086288553 0.144660537 
Nb 0.755233298 0.252616649 0.071086322 
Se 0.918001863 0.334000931 -0.001032265 
Se 0.917826645 0.333913322 0.143610500 
Nb 0.755580915 0.499799157 0.071985123 
Se 0.917238316 0.582761684 -0.000888162 
Se 0.918144277 0.581855723 0.144660537 
Nb 0.750000000 0.750000000 0.073070697 
Se 0.917858612 0.833929305 0.003303337 
Se 0.924752482 0.837376241 0.144042112 
Nb 0.494218241 0.744419085 0.071985123 
Se 0.666070695 0.833929305 0.003303337 
Se 0.662623759 0.837376241 0.144042112 
Nb 0.247383351 0.744766702 0.071086322 
Se 0.416243664 0.832873234 0.000213304 
Se 0.414764116 0.833120499 0.142536550 
Nb 0.000200843 0.744419085 0.071985123 
Se 0.166629570 0.832873234 0.000213304 
Se 0.168356385 0.833120499 0.142536550 
Nb 0.500307703 0.250615407 0.071187903 
Se 0.667126766 0.333370430 0.000213304 
Se 0.666879501 0.331643615 0.142536550 
Nb 0.494218241 0.499799157 0.071985123 
Se 0.666070695 0.582141388 0.003303337 
Se 0.662623759 0.575247518 0.144042112 
Nb 0.248823676 0.499411838 0.071381524 
Se 0.415523368 0.582761684 -0.000888162 
Se 0.413711447 0.581855723 0.144660537 
Nb 0.247383351 0.252616649 0.071086322 
Se 0.416243664 0.333370430 0.000213304 
Se 0.414764116 0.331643615 0.142536550 
Nb 0.000588162 0.251176324 0.071381524 
Se 0.165999069 0.334000931 -0.001032265 
Se 0.166086678 0.333913322 0.143610500 
Nb 0.000588162 0.499411838 0.071381524 
Se 0.165999069 0.581998137 -0.001032265 
Se 0.166086678 0.582173355 0.143610500 
End Atoms_Frac

mp_grid = 4  4  1  
begin kpoints 
  0.00000000  0.00000000  0.00000000
  0.00000000  0.25000000  0.00000000
  0.00000000  0.50000000  0.00000000
  0.00000000  0.75000000  0.00000000
  0.25000000  0.00000000  0.00000000
  0.25000000  0.25000000  0.00000000
  0.25000000  0.50000000  0.00000000
  0.25000000  0.75000000  0.00000000
  0.50000000  0.00000000  0.00000000
  0.50000000  0.25000000  0.00000000
  0.50000000  0.50000000  0.00000000
  0.50000000  0.75000000  0.00000000
  0.75000000  0.00000000  0.00000000
  0.75000000  0.25000000  0.00000000
  0.75000000  0.50000000  0.00000000
  0.75000000  0.75000000  0.00000000
end kpoints 
!!!!!!!!!!!!!!!!!!!!!!!!!!!!!!!!!!END OF FILE!!!!!!!!!!!!!!!!!!!!!!!!!!!!!!!!!!!
