&CONTROL
  calculation = 'scf'
  outdir = './tmp'
  prefix = 'crbr3.nbse2.bilayer'
  pseudo_dir = '/u/jojaibal/QuantumEspresso/pseudopotentials/'
  tprnfor = .true.
  tstress = .true.
  verbosity = 'low'
/ 

&SYSTEM
  degauss =   1.4699723600d-02  
  ecutrho =   3.2000000000d+02
  ecutwfc =   4.0000000000d+01
  ibrav=0,
  nat = 20
  nspin = 2
  ntyp = 4
  occupations = 'smearing'
  smearing = 'cold'
  lda_plus_u = .true.,lda_plus_u_kind = 0,U_projection_type = 'atomic',Hubbard_U(1) =5.1701,
  starting_magnetization(1) =3.5714285714d-01
  vdw_corr='grimme-d2'
/
&ELECTRONS
  conv_thr =   1.0000000000d-07
  electron_maxstep = 500
  mixing_beta =   4.0000000000d-01
  diagonalization='david'
  mixing_mode='local-TF'
/

ATOMIC_SPECIES
Cr     51.996  cr_pbe_v1.5.uspp.F.UPF
Br     79.904  br_pbe_v1.4.uspp.F.UPF
Nb     92.9064 Nb.pbe-spn-kjpaw_psl.0.3.0.UPF
Se     78.96   Se_pbe_v1.uspp.F.UPF

CELL_PARAMETERS (angstrom)
   6.82162830013  -0.000000000   0.000000000
  -3.41081414677   5.907703401  0.000000000
   0.000000000   0.000000000   27.3311395226

ATOMIC_POSITIONS (crystal)
Cr       0.333333333   0.666666667   0.293727039
Cr       0.666666667   0.333333333   0.293400786
Br       0.364609886   0.365992200   0.240850880
Br       0.634007800  -0.001382314   0.240850880
Br       0.001382314   0.635390114   0.240850880
Br       0.638714659   0.638283935   0.345510122
Br       0.361716065   0.000430723   0.345510122
Br      -0.000430723   0.361285341   0.345510122
Nb      -0.000000000  -0.000000000   0.057456911
Se       0.333744429   0.166248427  -0.004829707
Se       0.333427885   0.164697725   0.119314792
Nb       0.498532427   0.499590595   0.057583308
Se       0.832503997   0.666255571  -0.004829707
Se       0.831269839   0.666572115   0.119314792
Nb       0.001058168   0.501467573   0.057583308
Se       0.333333333   0.666666667  -0.005055295
Se       0.333333333   0.666666667   0.120006103
Nb       0.500409405  -0.001058168   0.057583308
Se       0.833751573   0.167496003  -0.004829707
Se       0.835302275   0.168730161   0.119314792

K_POINTS automatic
6 6 2 0 0 0
