&CONTROL
calculation = 'scf'
  prefix='adatom'
  outdir='./tmp',
  pseudo_dir='/ptmp/jojaibal/YSR_Project'
  verbosity='low',
tstress = .false.
 tprnfor = .false.
 /

&SYSTEM
  ibrav = 4, a=13.7841709588d0, c=23.63142987d0
  nat=52,
  ntyp=3,
  ecutwfc=75.0d0,
  ecutrho=800.0d0,
  occupations='smearing',
  smearing='mp',
  degauss=0.02,
  nspin=2,
  starting_magnetization(1)=0.5,
 lda_plus_u=.true.,
 Hubbard_U(1)=4,
 ! vdw_corr='grimme-d2'
/

&ELECTRONS
  diagonalization='david',
  conv_thr=1d-07,
  mixing_mode='local-TF',
  mixing_beta=0.7D0,
  electron_maxstep=1000,
/

ATOMIC_SPECIES
Cr   51.9961  Cr.pbe-spn-kjpaw_psl.1.0.0.UPF 
 Nb   92.90638  Nb.pbe-spn-kjpaw_psl.1.0.0.UPF
  Se   78.96000  Se.pbe-n-kjpaw_psl.1.0.0.UPF
  
ATOMIC_POSITIONS (crystal)
Cr 0.3333333330 0.6666666670 0.1668534738   
Cr 0.58 0.6666666670 0.1668534738   
Cr 0.85 0.6666666670 0.1668534738   
Cr 0.10 0.6666666670 0.1668534738  
Nb 0.0000000000 0.0000000000 0.0716966868   
Se 0.1672118989 0.0836059489 0.0006286762   
Se 0.1668951594 0.0834475792 0.1428997802   
Nb 0.2518876170 0.0002406197 0.0720113203   
Se 0.4154419759 0.0814305844 -0.001557602   
Se 0.4191064038 0.0892753176 0.1418828481   
Nb 0.5022842557 0.0045685115 0.0708439985   
Se 0.6659886094 0.0814305844 -0.001557602   
Se 0.6701689147 0.0892753176 0.1418828481   
Nb 0.7483530026 0.0002406197 0.0720113203   
Se 0.9163940511 0.0836059489 0.0006286762   
Se 0.9165524208 0.0834475792 0.1428997802   
Nb 0.7484972433 0.2515027567 0.0682848758   
Se 0.9185694156 0.3340113906 -0.001557602   
Se 0.9107246824 0.3298310853 0.1418828481   
Nb 0.7484972433 0.4969944865 0.0682848758   
Se 0.9185694156 0.5845580241 -0.001557602   
Se 0.9107246824 0.5808935962 0.1418828481   
Nb 0.7483530026 0.7481123830 0.0720113203   
Se 0.9163940511 0.8327881011 0.0006286762   
Se 0.9165524208 0.8331048406 0.1428997802   
Nb 0.5003215333 0.7501607667 0.0785856432   
Se 0.6622022255 0.8311011123 0.0029803699   
Se 0.6717152196 0.8358576093 0.1454662942   
Nb 0.2498392333 0.7501607667 0.0785856432   
Se 0.4148928944 0.8297857877 0.0055969204   
Se 0.4282534243 0.8565068477 0.1499217432   
Nb -0.000240619 0.7481123830 0.0720113203   
Se 0.1688988877 0.8311011123 0.0029803699   
Se 0.1641423907 0.8358576093 0.1454662942   
Nb 0.5030055135 0.2515027567 0.0682848758   
Se 0.6666666670 0.3333333330 -0.004320309   
Se 0.6666666670 0.3333333330 0.1410482636   
Nb 0.5022842557 0.4977157443 0.0708439985   
Se 0.6659886094 0.5845580241 -0.001557602   
Se 0.6701689147 0.5808935962 0.1418828481   
Nb 0.2498392333 0.4996784667 0.0785856432   
Se 0.4148928944 0.5851071056 0.0055969204   
Se 0.4282534243 0.5717465757 0.1499217432   
Nb 0.2518876170 0.2516469974 0.0720113203   
Se 0.4154419759 0.3340113906 -0.001557602   
Se 0.4191064038 0.3298310853 0.1418828481   
Nb -0.000240619 0.2516469974 0.0720113203   
Se 0.1688988877 0.3377977745 0.0029803699   
Se 0.1641423907 0.3282847804 0.1454662942   
Nb -0.004568511 0.4977157443 0.0708439985   
Se 0.1702142123 0.5851071056 0.0055969204   
Se 0.1434931523 0.5717465757 0.1499217432   

K_POINTS {automatic}
6 6 1 0 0 0


